50
1 0 1
4 1 6
4 2 7
5 0 5
5 1 6
6 2 3
6 4 10
7 2 7
7 4 9
8 1 9
8 6 4
9 1 6
9 3 6
9 5 1
9 6 4
10 0 2
10 1 9
10 5 9
10 7 7
10 8 9
11 4 10
11 7 6
11 10 4
12 1 1
12 2 7
12 3 10
12 9 5
12 10 10
13 0 6
13 1 7
13 3 6
13 4 9
13 6 10
13 7 8
13 10 10
13 11 7
13 12 2
14 1 7
14 2 8
14 3 10
14 4 6
14 5 4
14 6 1
14 7 8
14 9 2
14 10 2
14 13 4
15 0 5
15 4 5
15 5 6
15 9 2
15 11 7
15 12 6
15 14 6
16 5 10
16 6 9
16 7 1
16 9 10
16 10 10
16 14 5
17 1 8
17 3 10
17 4 9
17 5 3
17 8 10
17 9 8
17 15 10
17 16 5
18 0 4
18 3 4
18 4 3
18 6 9
18 7 1
18 9 8
18 10 7
18 11 9
18 13 2
18 15 7
18 17 5
19 0 4
19 8 2
19 11 9
19 12 5
19 13 3
19 15 8
19 16 3
19 18 9
20 1 9
20 3 5
20 4 8
20 7 3
20 9 10
20 10 1
20 11 1
20 12 1
20 15 9
20 18 2
20 19 6
21 1 9
21 2 3
21 4 9
21 5 8
21 6 3
21 10 9
21 11 7
21 12 2
21 14 4
21 16 7
21 19 9
22 0 4
22 2 9
22 3 8
22 5 1
22 7 1
22 8 1
22 9 10
22 10 1
22 21 9
23 1 5
23 2 1
23 5 1
23 6 2
23 7 6
23 9 4
23 15 1
23 16 5
23 22 5
24 2 3
24 4 7
24 5 10
24 6 2
24 7 2
24 9 5
24 10 8
24 13 9
24 15 1
24 16 6
24 17 10
24 19 1
24 21 4
24 23 8
25 5 3
25 6 1
25 7 2
25 10 8
25 12 7
25 14 4
25 16 6
25 17 3
25 20 6
25 24 7
26 0 5
26 3 1
26 4 9
26 7 10
26 13 4
26 14 8
26 15 2
26 17 4
26 18 5
26 19 7
26 22 8
26 24 9
26 25 2
27 1 9
27 2 1
27 4 5
27 5 4
27 7 7
27 11 1
27 14 6
27 15 5
27 22 2
27 26 7
28 0 4
28 2 1
28 5 9
28 7 5
28 8 8
28 9 7
28 13 8
28 16 8
28 17 10
28 19 6
28 21 7
28 22 3
28 23 2
28 25 2
29 0 6
29 2 6
29 4 7
29 9 3
29 11 8
29 12 4
29 13 3
29 15 6
29 18 3
29 20 5
29 21 1
29 25 9
29 26 5
29 28 4
30 4 3
30 10 10
30 12 6
30 13 5
30 18 10
30 20 2
30 23 2
30 24 9
30 27 8
30 29 3
31 1 2
31 3 9
31 7 4
31 8 8
31 11 6
31 12 6
31 13 2
31 14 1
31 15 7
31 18 5
31 20 1
31 21 9
31 24 10
31 26 4
31 27 8
31 28 1
32 1 4
32 3 9
32 8 6
32 9 10
32 10 2
32 11 4
32 12 8
32 14 4
32 15 7
32 23 4
32 24 8
32 25 10
32 26 8
32 30 1
32 31 4
33 0 3
33 2 7
33 3 9
33 5 2
33 7 5
33 11 9
33 12 3
33 18 6
33 19 8
33 21 10
33 22 9
33 23 9
33 27 10
33 30 10
33 31 9
33 32 9
34 0 4
34 2 4
34 9 8
34 10 1
34 12 7
34 13 2
34 15 8
34 16 5
34 18 3
34 24 5
34 32 1
35 5 8
35 6 2
35 7 10
35 10 1
35 11 10
35 14 3
35 16 10
35 17 2
35 20 9
35 23 5
35 24 10
35 26 8
35 27 4
35 31 5
36 0 6
36 4 2
36 5 3
36 6 1
36 8 1
36 9 5
36 11 2
36 12 1
36 16 2
36 17 2
36 20 3
36 23 5
36 27 2
36 28 4
36 29 4
36 30 5
36 31 10
36 34 5
37 0 9
37 4 6
37 5 9
37 12 3
37 13 5
37 14 5
37 15 5
37 18 4
37 19 2
37 20 9
37 21 8
37 22 3
37 28 1
37 31 10
37 34 5
37 35 3
38 0 4
38 1 4
38 2 1
38 3 7
38 5 7
38 6 9
38 10 10
38 12 6
38 14 3
38 15 9
38 19 2
38 21 8
38 22 4
38 23 5
38 26 3
38 31 3
38 36 4
39 1 6
39 3 4
39 4 5
39 5 4
39 7 4
39 8 6
39 9 3
39 12 4
39 16 1
39 17 2
39 19 9
39 22 6
39 25 1
39 28 9
39 30 8
39 32 3
39 34 4
39 36 7
40 1 8
40 8 10
40 9 10
40 10 4
40 13 6
40 15 9
40 17 3
40 19 10
40 21 5
40 22 5
40 23 1
40 25 2
40 26 10
40 27 2
40 28 7
40 29 4
40 30 6
40 31 4
40 34 2
40 36 7
40 37 7
41 0 4
41 2 8
41 6 8
41 11 2
41 12 10
41 13 8
41 14 7
41 15 7
41 16 7
41 19 8
41 21 8
41 22 6
41 23 9
41 24 5
41 25 7
41 29 5
41 31 7
41 32 9
41 33 2
41 34 7
41 37 7
41 38 3
42 1 5
42 8 9
42 9 7
42 10 3
42 13 4
42 14 10
42 15 2
42 17 9
42 19 9
42 21 1
42 22 2
42 23 1
42 25 5
42 26 1
42 29 3
42 31 3
42 33 10
42 34 1
42 35 5
42 36 2
42 37 6
42 40 3
43 0 9
43 1 10
43 6 7
43 9 2
43 10 5
43 11 10
43 16 3
43 18 5
43 21 8
43 22 6
43 24 8
43 26 7
43 29 3
43 30 9
43 34 7
43 35 5
43 38 3
43 39 5
43 41 3
44 1 5
44 2 10
44 3 3
44 4 5
44 6 9
44 7 2
44 8 1
44 12 1
44 16 9
44 17 6
44 20 5
44 21 4
44 22 8
44 25 8
44 27 6
44 28 2
44 29 8
44 31 6
44 32 6
44 33 2
44 34 5
44 35 9
44 38 8
44 39 3
44 41 4
44 42 2
45 1 8
45 2 2
45 3 2
45 4 1
45 5 10
45 8 6
45 9 4
45 10 5
45 12 6
45 14 9
45 16 3
45 19 10
45 20 6
45 21 3
45 25 2
45 26 8
45 29 8
45 31 10
45 33 5
45 38 9
45 40 9
45 41 9
46 3 9
46 7 8
46 12 1
46 13 3
46 20 6
46 22 1
46 24 3
46 26 5
46 27 10
46 28 2
46 30 9
46 31 4
46 32 5
46 38 7
46 40 6
46 41 5
46 42 1
46 43 6
46 44 5
47 3 4
47 5 2
47 7 4
47 10 7
47 11 8
47 13 7
47 14 2
47 15 5
47 16 5
47 18 10
47 19 5
47 22 7
47 23 4
47 24 8
47 26 8
47 27 1
47 28 6
47 30 7
47 32 6
47 33 8
47 42 3
47 44 7
48 0 10
48 1 4
48 3 3
48 5 10
48 7 2
48 8 2
48 9 5
48 10 2
48 14 8
48 16 4
48 17 8
48 18 2
48 19 6
48 21 1
48 22 1
48 23 9
48 25 10
48 27 9
48 28 9
48 29 9
48 30 3
48 35 10
48 37 5
48 40 7
48 41 7
48 44 5
48 45 4
49 0 5
49 2 9
49 3 3
49 5 8
49 8 3
49 10 4
49 11 10
49 12 9
49 13 3
49 15 4
49 21 10
49 22 4
49 23 4
49 24 2
49 26 2
49 27 7
49 28 6
49 29 9
49 31 3
49 32 9
49 33 5
49 38 9
49 40 9
49 43 8
49 45 3
